(set-option :produce-models true); benchmark generated from python API
(set-info :status unknown)
(declare-fun l_0_0_7 () Real)
(declare-fun l_0_0_1 () Real)
(declare-fun _a_0_ () Real)
(declare-fun l_0_0_9 () Real)
(declare-fun l_0_0_8 () Real)
(declare-fun l_0_0_3 () Real)
(declare-fun l_0_0_2 () Real)
(declare-fun _a_1_ () Real)
(declare-fun l_0_0_6 () Real)
(declare-fun l_0_0_5 () Real)
(declare-fun l_0_0_4 () Real)
(declare-fun l_0_0_12 () Real)
(declare-fun l_0_0_11 () Real)
(declare-fun l_0_0_10 () Real)
(declare-fun _a_2_ () Real)
(declare-fun _a_3_ () Real)
(declare-fun _a_4_ () Real)
(declare-fun _a_5_ () Real)
(declare-fun l_0_1_7 () Real)
(declare-fun l_0_1_13 () Real)
(declare-fun l_0_1_1 () Real)
(declare-fun l_0_1_16 () Real)
(declare-fun l_0_1_10 () Real)
(declare-fun l_0_1_4 () Real)
(declare-fun l_0_1_9 () Real)
(declare-fun l_0_1_8 () Real)
(declare-fun l_0_1_15 () Real)
(declare-fun l_0_1_14 () Real)
(declare-fun l_0_1_2 () Real)
(declare-fun l_0_1_3 () Real)
(declare-fun l_0_1_17 () Real)
(declare-fun l_0_1_11 () Real)
(declare-fun l_0_1_5 () Real)
(declare-fun l_0_1_18 () Real)
(declare-fun l_0_1_12 () Real)
(declare-fun l_0_1_6 () Real)
(declare-fun l_0_2_7 () Real)
(declare-fun l_0_2_13 () Real)
(declare-fun l_0_2_1 () Real)
(declare-fun l_0_2_9 () Real)
(declare-fun l_0_2_8 () Real)
(declare-fun l_0_2_3 () Real)
(declare-fun l_0_2_2 () Real)
(declare-fun l_0_2_10 () Real)
(declare-fun l_0_2_5 () Real)
(declare-fun l_0_2_4 () Real)
(declare-fun l_0_2_15 () Real)
(declare-fun l_0_2_14 () Real)
(declare-fun l_0_2_18 () Real)
(declare-fun l_0_2_17 () Real)
(declare-fun l_0_2_16 () Real)
(declare-fun l_0_2_12 () Real)
(declare-fun l_0_2_11 () Real)
(declare-fun l_0_2_6 () Real)
(assert
 (let ((?x63 (* l_0_0_7 l_0_0_7)))
 (= (- (- _a_0_ (* (* 2.0 l_0_0_1) l_0_0_1)) ?x63) 0.0)))
(assert
 (let ((?x106 (* l_0_0_9 l_0_0_9)))
 (let ((?x104 (* l_0_0_8 l_0_0_8)))
 (let ((?x85 (* l_0_0_1 l_0_0_1)))
 (let ((?x97 (+ _a_1_ ?x85)))
 (let ((?x103 (- (- ?x97 (* (* 2.0 l_0_0_2) l_0_0_2)) (* (* 2.0 l_0_0_3) l_0_0_3))))
 (= (- (- ?x103 ?x104) ?x106) 0.0)))))))
(assert
 (let ((?x133 (* l_0_0_12 l_0_0_12)))
 (let ((?x131 (* l_0_0_11 l_0_0_11)))
 (let ((?x132 (- (- (+ _a_2_ (* l_0_0_1 l_0_0_1)) (* l_0_0_10 l_0_0_10)) ?x131)))
 (let ((?x140 (- (- (- ?x132 ?x133) (* (* 2.0 l_0_0_4) l_0_0_4)) (* (* 2.0 l_0_0_5) l_0_0_5))))
 (= (- ?x140 (* (* 2.0 l_0_0_6) l_0_0_6)) 0.0))))))
(assert
 (let ((?x179 (- (- _a_3_ (* (* 4.0 l_0_0_1) l_0_0_4)) (* (* 2.0 l_0_0_10) l_0_0_7))))
 (= ?x179 0.0)))
(assert
 (let ((?x199 (- (- _a_4_ (* (* 2.0 l_0_0_10) l_0_0_8)) (* (* 2.0 l_0_0_11) l_0_0_9))))
 (let ((?x205 (- (- ?x199 (* (* 4.0 l_0_0_2) l_0_0_4)) (* (* 4.0 l_0_0_3) l_0_0_5))))
 (= ?x205 0.0))))
(assert
 (let ((?x236 (- (- _a_5_ (* (* 4.0 l_0_0_1) l_0_0_2)) (* (* 2.0 l_0_0_7) l_0_0_8))))
 (= ?x236 0.0)))
(assert
 (= (* (* 2.0 l_0_0_1) l_0_0_2) 0.0))
(assert
 (= (* (* 2.0 l_0_0_1) l_0_0_4) 0.0))
(assert
 (let ((?x115 (* l_0_0_3 l_0_0_3)))
 (let ((?x109 (* l_0_0_2 l_0_0_2)))
 (let ((?x256 (+ ?x109 ?x115)))
 (= ?x256 0.0)))))
(assert
 (let ((?x261 (+ (* (* 2.0 l_0_0_2) l_0_0_4) (* (* 2.0 l_0_0_3) l_0_0_5))))
 (= ?x261 0.0)))
(assert
 (let ((?x166 (* l_0_0_6 l_0_0_6)))
 (let ((?x160 (* l_0_0_5 l_0_0_5)))
 (let ((?x154 (* l_0_0_4 l_0_0_4)))
 (let ((?x115 (* l_0_0_3 l_0_0_3)))
 (let ((?x109 (* l_0_0_2 l_0_0_2)))
 (let ((?x256 (+ ?x109 ?x115)))
 (= (+ (+ (+ ?x256 ?x154) ?x160) ?x166) 0.0))))))))
(assert
 (= (* (* 2.0 l_0_0_1) l_0_0_2) 0.0))
(assert
 (= (* (* 2.0 l_0_0_1) l_0_0_4) 0.0))
(assert
 (let ((?x261 (+ (* (* 2.0 l_0_0_2) l_0_0_4) (* (* 2.0 l_0_0_3) l_0_0_5))))
 (= ?x261 0.0)))
(assert
 (let ((?x166 (* l_0_0_6 l_0_0_6)))
 (= (+ (+ (* l_0_0_4 l_0_0_4) (* l_0_0_5 l_0_0_5)) ?x166) 0.0)))
(assert
 (>= l_0_0_1 0.0))
(assert
 (>= l_0_0_3 0.0))
(assert
 (>= l_0_0_6 0.0))
(assert
 (>= l_0_0_7 0.0))
(assert
 (>= l_0_0_9 0.0))
(assert
 (>= l_0_0_12 0.0))
(assert
 (let ((?x292 (+ (- (* (* (- _a_0_) l_0_1_1) l_0_1_1) (* l_0_1_13 l_0_1_13)) (* 3.0 (* l_0_1_7 l_0_1_7)))))
 (= (+ ?x292 (/ 121.0 100.0)) 0.0)))
(assert
 (let ((?x311 (- (* (* (* (- 2.0) _a_0_) l_0_1_1) l_0_1_4) (* (* _a_3_ l_0_1_1) l_0_1_1))))
 (let ((?x318 (- (+ ?x311 (* (* 6.0 l_0_1_10) l_0_1_7)) (* (* 2.0 l_0_1_13) l_0_1_16))))
 (= (+ ?x318 1.0) 0.0))))
(assert
 (let ((?x361 (* l_0_1_9 l_0_1_9)))
 (let ((?x362 (* 3.0 ?x361)))
 (let ((?x358 (* l_0_1_8 l_0_1_8)))
 (let ((?x359 (* 3.0 ?x358)))
 (let ((?x289 (* l_0_1_7 l_0_1_7)))
 (let ((?x355 (* l_0_1_15 l_0_1_15)))
 (let ((?x353 (* l_0_1_14 l_0_1_14)))
 (let ((?x348 (- (* (- _a_0_) (+ (* l_0_1_2 l_0_1_2) (* l_0_1_3 l_0_1_3))) (* (* _a_1_ l_0_1_1) l_0_1_1))))
 (let ((?x356 (- (- (- ?x348 (* (* (* 2.0 _a_5_) l_0_1_1) l_0_1_2)) ?x353) ?x355)))
 (= (- (+ (+ (- ?x356 ?x289) ?x359) ?x362) (/ 1.0 5.0)) 0.0)))))))))))
(assert
 (let ((?x403 (- (* (* (* (- 2.0) _a_0_) l_0_1_1) l_0_1_2) (* (* _a_5_ l_0_1_1) l_0_1_1))))
 (let ((?x408 (+ (- ?x403 (* (* 2.0 l_0_1_13) l_0_1_14)) (* (* 6.0 l_0_1_7) l_0_1_8))))
 (= ?x408 0.0))))
(assert
 (let ((?x432 (+ (* (* 2.0 l_0_1_2) l_0_1_4) (* (* 2.0 l_0_1_3) l_0_1_5))))
 (let ((?x284 (- _a_0_)))
 (let ((?x440 (- (- (* ?x284 ?x432) (* (* (* 2.0 _a_3_) l_0_1_1) l_0_1_2)) (* (* _a_4_ l_0_1_1) l_0_1_1))))
 (let ((?x444 (+ (- ?x440 (* (* (* 2.0 _a_5_) l_0_1_1) l_0_1_4)) (* (* 6.0 l_0_1_10) l_0_1_8))))
 (let ((?x450 (- (+ ?x444 (* (* 6.0 l_0_1_11) l_0_1_9)) (* (* 2.0 l_0_1_14) l_0_1_16))))
 (= (- ?x450 (* (* 2.0 l_0_1_15) l_0_1_17)) 0.0)))))))
(assert
 (let ((?x289 (* l_0_1_7 l_0_1_7)))
 (let ((?x526 (* l_0_1_18 l_0_1_18)))
 (let ((?x524 (* l_0_1_17 l_0_1_17)))
 (let ((?x522 (* l_0_1_16 l_0_1_16)))
 (let ((?x519 (* l_0_1_12 l_0_1_12)))
 (let ((?x520 (* 3.0 ?x519)))
 (let ((?x516 (* l_0_1_11 l_0_1_11)))
 (let ((?x517 (* 3.0 ?x516)))
 (let ((?x513 (* l_0_1_10 l_0_1_10)))
 (let ((?x514 (* 3.0 ?x513)))
 (let ((?x505 (* l_0_1_6 l_0_1_6)))
 (let ((?x506 (+ (+ (* l_0_1_4 l_0_1_4) (* l_0_1_5 l_0_1_5)) ?x505)))
 (let ((?x284 (- _a_0_)))
 (let ((?x512 (- (- (* ?x284 ?x506) (* (* _a_2_ l_0_1_1) l_0_1_1)) (* (* (* 2.0 _a_3_) l_0_1_1) l_0_1_4))))
 (let ((?x528 (- (- (- (- (+ (+ (+ ?x512 ?x514) ?x517) ?x520) ?x522) ?x524) ?x526) ?x289)))
 (= ?x528 0.0)))))))))))))))))
(assert
 (let ((?x571 (* (* 2.0 l_0_1_7) l_0_1_8)))
 (let ((?x569 (- (* (* (* (- 2.0) _a_1_) l_0_1_1) l_0_1_2) (* _a_5_ (+ (* l_0_1_2 l_0_1_2) (* l_0_1_3 l_0_1_3))))))
 (= (- ?x569 ?x571) 0.0))))
(assert
 (let ((?x605 (* 2.0 l_0_1_10)))
 (let ((?x606 (* ?x605 l_0_1_7)))
 (let ((?x432 (+ (* (* 2.0 l_0_1_2) l_0_1_4) (* (* 2.0 l_0_1_3) l_0_1_5))))
 (let ((?x598 (- (* (* (* (- 2.0) _a_1_) l_0_1_1) l_0_1_4) (* _a_3_ (+ (* l_0_1_2 l_0_1_2) (* l_0_1_3 l_0_1_3))))))
 (let ((?x604 (- (- ?x598 (* (* (* 2.0 _a_4_) l_0_1_1) l_0_1_2)) (* _a_5_ ?x432))))
 (= (- ?x604 ?x606) 0.0)))))))
(assert
 (let ((?x361 (* l_0_1_9 l_0_1_9)))
 (let ((?x358 (* l_0_1_8 l_0_1_8)))
 (let ((?x658 (- (* (- _a_1_) (+ (* l_0_1_2 l_0_1_2) (* l_0_1_3 l_0_1_3))) ?x358)))
 (= (- ?x658 ?x361) 0.0)))))
(assert
 (let ((?x681 (* (* 2.0 l_0_1_11) l_0_1_9)))
 (let ((?x605 (* 2.0 l_0_1_10)))
 (let ((?x678 (* ?x605 l_0_1_8)))
 (let ((?x432 (+ (* (* 2.0 l_0_1_2) l_0_1_4) (* (* 2.0 l_0_1_3) l_0_1_5))))
 (let ((?x656 (- _a_1_)))
 (let ((?x677 (- (* ?x656 ?x432) (* _a_4_ (+ (* l_0_1_2 l_0_1_2) (* l_0_1_3 l_0_1_3))))))
 (= (- (- ?x677 ?x678) ?x681) 0.0))))))))
(assert
 (let ((?x361 (* l_0_1_9 l_0_1_9)))
 (let ((?x358 (* l_0_1_8 l_0_1_8)))
 (let ((?x519 (* l_0_1_12 l_0_1_12)))
 (let ((?x516 (* l_0_1_11 l_0_1_11)))
 (let ((?x513 (* l_0_1_10 l_0_1_10)))
 (let ((?x432 (+ (* (* 2.0 l_0_1_2) l_0_1_4) (* (* 2.0 l_0_1_3) l_0_1_5))))
 (let ((?x505 (* l_0_1_6 l_0_1_6)))
 (let ((?x506 (+ (+ (* l_0_1_4 l_0_1_4) (* l_0_1_5 l_0_1_5)) ?x505)))
 (let ((?x656 (- _a_1_)))
 (let ((?x715 (- (* ?x656 ?x506) (* _a_2_ (+ (* l_0_1_2 l_0_1_2) (* l_0_1_3 l_0_1_3))))))
 (let ((?x722 (- (- (- (- (- (- ?x715 (* _a_4_ ?x432)) ?x513) ?x516) ?x519) ?x358) ?x361)))
 (= ?x722 0.0)))))))))))))
(assert
 (let ((?x571 (* (* 2.0 l_0_1_7) l_0_1_8)))
 (let ((?x505 (* l_0_1_6 l_0_1_6)))
 (let ((?x506 (+ (+ (* l_0_1_4 l_0_1_4) (* l_0_1_5 l_0_1_5)) ?x505)))
 (let ((?x432 (+ (* (* 2.0 l_0_1_2) l_0_1_4) (* (* 2.0 l_0_1_3) l_0_1_5))))
 (let ((?x782 (- (- (* (* (* (- 2.0) _a_2_) l_0_1_1) l_0_1_2) (* _a_3_ ?x432)) (* (* (* 2.0 _a_4_) l_0_1_1) l_0_1_4))))
 (= (- (- ?x782 (* _a_5_ ?x506)) ?x571) 0.0)))))))
(assert
 (let ((?x605 (* 2.0 l_0_1_10)))
 (let ((?x606 (* ?x605 l_0_1_7)))
 (let ((?x505 (* l_0_1_6 l_0_1_6)))
 (let ((?x506 (+ (+ (* l_0_1_4 l_0_1_4) (* l_0_1_5 l_0_1_5)) ?x505)))
 (let ((?x836 (- (- (* (* (* (- 2.0) _a_2_) l_0_1_1) l_0_1_4) (* _a_3_ ?x506)) ?x606)))
 (= ?x836 0.0)))))))
(assert
 (let ((?x681 (* (* 2.0 l_0_1_11) l_0_1_9)))
 (let ((?x605 (* 2.0 l_0_1_10)))
 (let ((?x678 (* ?x605 l_0_1_8)))
 (let ((?x505 (* l_0_1_6 l_0_1_6)))
 (let ((?x506 (+ (+ (* l_0_1_4 l_0_1_4) (* l_0_1_5 l_0_1_5)) ?x505)))
 (let ((?x432 (+ (* (* 2.0 l_0_1_2) l_0_1_4) (* (* 2.0 l_0_1_3) l_0_1_5))))
 (let ((?x861 (- _a_2_)))
 (= (- (- (- (* ?x861 ?x432) (* _a_4_ ?x506)) ?x678) ?x681) 0.0)))))))))
(assert
 (let ((?x519 (* l_0_1_12 l_0_1_12)))
 (let ((?x516 (* l_0_1_11 l_0_1_11)))
 (let ((?x513 (* l_0_1_10 l_0_1_10)))
 (let ((?x505 (* l_0_1_6 l_0_1_6)))
 (let ((?x506 (+ (+ (* l_0_1_4 l_0_1_4) (* l_0_1_5 l_0_1_5)) ?x505)))
 (let ((?x861 (- _a_2_)))
 (= (- (- (- (* ?x861 ?x506) ?x513) ?x516) ?x519) 0.0))))))))
(assert
 (>= l_0_1_1 0.0))
(assert
 (>= l_0_1_3 0.0))
(assert
 (>= l_0_1_6 0.0))
(assert
 (>= l_0_1_7 0.0))
(assert
 (>= l_0_1_9 0.0))
(assert
 (>= l_0_1_12 0.0))
(assert
 (>= l_0_1_13 0.0))
(assert
 (>= l_0_1_15 0.0))
(assert
 (>= l_0_1_18 0.0))
(assert
 (let ((?x937 (* l_0_2_13 l_0_2_13)))
 (let ((?x933 (* 1.0 _a_4_)))
 (let ((?x928 (+ (+ (* (* (- _a_0_) l_0_2_1) l_0_2_1) _a_0_) (* 1.0 _a_1_))))
 (let ((?x936 (- (- (+ (+ ?x928 (* 1.0 _a_2_)) (* 1.0 _a_3_)) ?x933) (* 1.0 _a_5_))))
 (= (- (- ?x936 ?x937) (* (* 3.0 l_0_2_7) l_0_2_7)) 0.0))))))
(assert
 (let ((?x969 (* l_0_2_9 l_0_2_9)))
 (let ((?x967 (* l_0_2_8 l_0_2_8)))
 (let ((?x966 (+ (* (- _a_1_) (+ (* l_0_2_2 l_0_2_2) (* l_0_2_3 l_0_2_3))) _a_1_)))
 (= (+ (+ ?x966 ?x967) ?x969) 0.0)))))
(assert
 (let ((?x995 (* 2.0 l_0_2_10)))
 (let ((?x996 (* ?x995 l_0_2_7)))
 (let ((?x992 (+ (* (* 2.0 l_0_2_2) l_0_2_4) (* (* 2.0 l_0_2_3) l_0_2_5))))
 (let ((?x984 (- (+ (* (* (* (- 2.0) _a_1_) l_0_2_1) l_0_2_4) (* 2.0 _a_1_)) (* _a_3_ (+ (* l_0_2_2 l_0_2_2) (* l_0_2_3 l_0_2_3))))))
 (let ((?x994 (- (- ?x984 (* (* (* 2.0 _a_4_) l_0_2_1) l_0_2_2)) (* _a_5_ ?x992))))
 (= (+ ?x994 ?x996) 0.0)))))))
(assert
 (let ((?x955 (* l_0_2_7 l_0_2_7)))
 (let ((?x1057 (* l_0_2_15 l_0_2_15)))
 (let ((?x1055 (* l_0_2_14 l_0_2_14)))
 (let ((?x933 (* 1.0 _a_4_)))
 (let ((?x981 (* 2.0 _a_1_)))
 (let ((?x1048 (- (* (- _a_0_) (+ (* l_0_2_2 l_0_2_2) (* l_0_2_3 l_0_2_3))) (* (* _a_1_ l_0_2_1) l_0_2_1))))
 (let ((?x1053 (- (+ (- ?x1048 ?x981) ?x933) (* (* (* 2.0 _a_5_) l_0_2_1) l_0_2_2))))
 (let ((?x1062 (- (+ (- (- (+ ?x1053 _a_5_) ?x1055) ?x1057) ?x955) (* (* 3.0 l_0_2_8) l_0_2_8))))
 (= (- ?x1062 (* (* 3.0 l_0_2_9) l_0_2_9)) 0.0))))))))))
(assert
 (let ((?x955 (* l_0_2_7 l_0_2_7)))
 (let ((?x1137 (* l_0_2_18 l_0_2_18)))
 (let ((?x1135 (* l_0_2_17 l_0_2_17)))
 (let ((?x1133 (* l_0_2_16 l_0_2_16)))
 (let ((?x933 (* 1.0 _a_4_)))
 (let ((?x1117 (* 2.0 _a_2_)))
 (let ((?x1110 (* l_0_2_6 l_0_2_6)))
 (let ((?x1111 (+ (+ (* l_0_2_4 l_0_2_4) (* l_0_2_5 l_0_2_5)) ?x1110)))
 (let ((?x284 (- _a_0_)))
 (let ((?x1118 (+ (- (+ (* ?x284 ?x1111) _a_1_) (* (* _a_2_ l_0_2_1) l_0_2_1)) ?x1117)))
 (let ((?x1123 (- (+ (- ?x1118 (* (* (* 2.0 _a_3_) l_0_2_1) l_0_2_4)) _a_3_) ?x933)))
 (let ((?x1129 (- (- ?x1123 (* (* 3.0 l_0_2_10) l_0_2_10)) (* (* 3.0 l_0_2_11) l_0_2_11))))
 (let ((?x1138 (- (- (- (- ?x1129 (* (* 3.0 l_0_2_12) l_0_2_12)) ?x1133) ?x1135) ?x1137)))
 (= (+ ?x1138 ?x955) 0.0)))))))))))))))
(assert
 (let ((?x933 (* 1.0 _a_4_)))
 (let ((?x1197 (- (- (* (* (* (- 2.0) _a_0_) l_0_2_1) l_0_2_4) (* 2.0 _a_1_)) (* (* _a_3_ l_0_2_1) l_0_2_1))))
 (let ((?x1205 (- (- (+ (+ ?x1197 ?x933) _a_5_) (* (* 6.0 l_0_2_10) l_0_2_7)) (* (* 2.0 l_0_2_13) l_0_2_16))))
 (= ?x1205 0.0)))))
(assert
 (let ((?x969 (* l_0_2_9 l_0_2_9)))
 (let ((?x967 (* l_0_2_8 l_0_2_8)))
 (let ((?x1175 (* l_0_2_12 l_0_2_12)))
 (let ((?x1169 (* l_0_2_11 l_0_2_11)))
 (let ((?x1163 (* l_0_2_10 l_0_2_10)))
 (let ((?x992 (+ (* (* 2.0 l_0_2_2) l_0_2_4) (* (* 2.0 l_0_2_3) l_0_2_5))))
 (let ((?x1233 (* 4.0 _a_2_)))
 (let ((?x1110 (* l_0_2_6 l_0_2_6)))
 (let ((?x1111 (+ (+ (* l_0_2_4 l_0_2_4) (* l_0_2_5 l_0_2_5)) ?x1110)))
 (let ((?x656 (- _a_1_)))
 (let ((?x1232 (- (* ?x656 ?x1111) (* _a_2_ (+ (* l_0_2_2 l_0_2_2) (* l_0_2_3 l_0_2_3))))))
 (let ((?x1240 (+ (+ (+ (+ (- (+ ?x1232 ?x1233) (* _a_4_ ?x992)) _a_4_) ?x1163) ?x1169) ?x1175)))
 (= (+ (+ ?x1240 ?x967) ?x969) 0.0))))))))))))))
(assert
 (let ((?x1292 (* (* 2.0 l_0_2_11) l_0_2_9)))
 (let ((?x995 (* 2.0 l_0_2_10)))
 (let ((?x1289 (* ?x995 l_0_2_8)))
 (let ((?x1110 (* l_0_2_6 l_0_2_6)))
 (let ((?x1111 (+ (+ (* l_0_2_4 l_0_2_4) (* l_0_2_5 l_0_2_5)) ?x1110)))
 (let ((?x1233 (* 4.0 _a_2_)))
 (let ((?x992 (+ (* (* 2.0 l_0_2_2) l_0_2_4) (* (* 2.0 l_0_2_3) l_0_2_5))))
 (let ((?x861 (- _a_2_)))
 (= (+ (+ (- (+ (* ?x861 ?x992) ?x1233) (* _a_4_ ?x1111)) ?x1289) ?x1292) 0.0))))))))))
(assert
 (let ((?x599 (* 2.0 _a_4_)))
 (let ((?x434 (* 2.0 _a_3_)))
 (let ((?x1233 (* 4.0 _a_2_)))
 (let ((?x992 (+ (* (* 2.0 l_0_2_2) l_0_2_4) (* (* 2.0 l_0_2_3) l_0_2_5))))
 (let ((?x284 (- _a_0_)))
 (let ((?x1326 (+ (- (+ (* ?x284 ?x992) ?x1233) (* (* ?x434 l_0_2_1) l_0_2_2)) ?x434)))
 (let ((?x1332 (- (- (- ?x1326 (* (* _a_4_ l_0_2_1) l_0_2_1)) ?x599) (* (* (* 2.0 _a_5_) l_0_2_1) l_0_2_4))))
 (let ((?x1337 (- (- ?x1332 (* (* 6.0 l_0_2_10) l_0_2_8)) (* (* 6.0 l_0_2_11) l_0_2_9))))
 (let ((?x1343 (- (- ?x1337 (* (* 2.0 l_0_2_14) l_0_2_16)) (* (* 2.0 l_0_2_15) l_0_2_17))))
 (= ?x1343 0.0)))))))))))
(assert
 (let ((?x1175 (* l_0_2_12 l_0_2_12)))
 (let ((?x1169 (* l_0_2_11 l_0_2_11)))
 (let ((?x1163 (* l_0_2_10 l_0_2_10)))
 (let ((?x1110 (* l_0_2_6 l_0_2_6)))
 (let ((?x1111 (+ (+ (* l_0_2_4 l_0_2_4) (* l_0_2_5 l_0_2_5)) ?x1110)))
 (let ((?x861 (- _a_2_)))
 (= (+ (+ (+ (+ (* ?x861 ?x1111) _a_2_) ?x1163) ?x1169) ?x1175) 0.0))))))))
(assert
 (let ((?x1292 (* (* 2.0 l_0_2_11) l_0_2_9)))
 (let ((?x995 (* 2.0 l_0_2_10)))
 (let ((?x1289 (* ?x995 l_0_2_8)))
 (let ((?x599 (* 2.0 _a_4_)))
 (let ((?x992 (+ (* (* 2.0 l_0_2_2) l_0_2_4) (* (* 2.0 l_0_2_3) l_0_2_5))))
 (let ((?x656 (- _a_1_)))
 (let ((?x1415 (- (* ?x656 ?x992) (* _a_4_ (+ (* l_0_2_2 l_0_2_2) (* l_0_2_3 l_0_2_3))))))
 (= (+ (+ (+ ?x1415 ?x599) ?x1289) ?x1292) 0.0)))))))))
(assert
 (let ((?x1449 (* (* 2.0 l_0_2_7) l_0_2_8)))
 (let ((?x1110 (* l_0_2_6 l_0_2_6)))
 (let ((?x1111 (+ (+ (* l_0_2_4 l_0_2_4) (* l_0_2_5 l_0_2_5)) ?x1110)))
 (let ((?x599 (* 2.0 _a_4_)))
 (let ((?x992 (+ (* (* 2.0 l_0_2_2) l_0_2_4) (* (* 2.0 l_0_2_3) l_0_2_5))))
 (let ((?x1444 (- (- (* (* (* (- 2.0) _a_2_) l_0_2_1) l_0_2_2) (* _a_3_ ?x992)) (* (* ?x599 l_0_2_1) l_0_2_4))))
 (= (+ (- (+ ?x1444 ?x599) (* _a_5_ ?x1111)) ?x1449) 0.0))))))))
(assert
 (let ((?x995 (* 2.0 l_0_2_10)))
 (let ((?x996 (* ?x995 l_0_2_7)))
 (let ((?x1110 (* l_0_2_6 l_0_2_6)))
 (let ((?x1111 (+ (+ (* l_0_2_4 l_0_2_4) (* l_0_2_5 l_0_2_5)) ?x1110)))
 (let ((?x1501 (+ (- (* (* (* (- 2.0) _a_2_) l_0_2_1) l_0_2_4) (* _a_3_ ?x1111)) _a_4_)))
 (= (+ ?x1501 ?x996) 0.0)))))))
(assert
 (let ((?x1526 (- (* (* (* (- 2.0) _a_0_) l_0_2_1) l_0_2_2) (* (* _a_5_ l_0_2_1) l_0_2_1))))
 (let ((?x1531 (- (- ?x1526 (* (* 2.0 l_0_2_13) l_0_2_14)) (* (* 6.0 l_0_2_7) l_0_2_8))))
 (= ?x1531 0.0))))
(assert
 (let ((?x1449 (* (* 2.0 l_0_2_7) l_0_2_8)))
 (let ((?x1556 (- (* (* (* (- 2.0) _a_1_) l_0_2_1) l_0_2_2) (* _a_5_ (+ (* l_0_2_2 l_0_2_2) (* l_0_2_3 l_0_2_3))))))
 (= (+ ?x1556 ?x1449) 0.0))))
(assert
 (>= l_0_2_1 0.0))
(assert
 (>= l_0_2_3 0.0))
(assert
 (>= l_0_2_6 0.0))
(assert
 (>= l_0_2_7 0.0))
(assert
 (>= l_0_2_9 0.0))
(assert
 (>= l_0_2_12 0.0))
(assert
 (>= l_0_2_13 0.0))
(assert
 (>= l_0_2_15 0.0))
(assert
 (>= l_0_2_18 0.0))
(check-sat)
(get-model)